NAME          BLANK   
ROWS
 N  OBJROW
 L  R0000000
COLUMNS
    C0000000  OBJROW     -628.         R0000000  254.        
    C0000001  OBJROW     -293.         R0000000  68.         
    C0000002  OBJROW     -318.         R0000000  766.        
    C0000003  OBJROW     -293.         R0000000  260.        
    C0000004  OBJROW     -164.         R0000000  911.        
    C0000005  OBJROW     -918.         R0000000  410.        
    C0000006  OBJROW     -948.         R0000000  432.        
    C0000007  OBJROW     -679.         R0000000  762.        
    C0000008  OBJROW     -468.         R0000000  416.        
    C0000009  OBJROW     -287.         R0000000  155.        
    C0000010  OBJROW     -708.         R0000000  264.        
    C0000011  OBJROW     -437.         R0000000  25.         
    C0000012  OBJROW     -662.         R0000000  841.        
    C0000013  OBJROW     -627.         R0000000  650.        
    C0000014  OBJROW     -432.         R0000000  519.        
    C0000015  OBJROW     -737.         R0000000  532.        
    C0000016  OBJROW     -265.         R0000000  599.        
    C0000017  OBJROW     -225.         R0000000  538.        
    C0000018  OBJROW     -297.         R0000000  160.        
    C0000019  OBJROW     -905.         R0000000  106.        
RHS
    RHS       R0000000  4334.       
BOUNDS
 BV BOUND     C0000000  1.          
 BV BOUND     C0000001  1.          
 BV BOUND     C0000002  1.          
 BV BOUND     C0000003  1.          
 BV BOUND     C0000004  1.          
 BV BOUND     C0000005  1.          
 BV BOUND     C0000006  1.          
 BV BOUND     C0000007  1.          
 BV BOUND     C0000008  1.          
 BV BOUND     C0000009  1.          
 BV BOUND     C0000010  1.          
 BV BOUND     C0000011  1.          
 BV BOUND     C0000012  1.          
 BV BOUND     C0000013  1.          
 BV BOUND     C0000014  1.          
 BV BOUND     C0000015  1.          
 BV BOUND     C0000016  1.          
 BV BOUND     C0000017  1.          
 BV BOUND     C0000018  1.          
 BV BOUND     C0000019  1.          
ENDATA
